50
1 4731 7236
2 1457 5149
3 7932 9115
4 876 24
5 9613 9975
6 2289 1820
7 904 6169
8 2671 4025
9 7136 4848
10 465 3910
11 4550 1036
12 9503 1366
13 2199 9284
14 5622 4107
15 2153 917
16 5093 7561
17 214 1979
18 7465 6572
19 711 5829
20 684 1516
21 1429 388
22 1705 9520
23 700 2949
24 6643 8129
25 3186 5296
26 3478 2288
27 4214 351
28 8782 7515
29 9660 6498
30 2551 2268
31 7384 5699
32 7525 258
33 4008 2806
34 7701 6772
35 3943 6483
36 9652 8675
37 7376 8678
38 5198 4319
39 2448 6903
40 3513 3645
41 2623 2422
42 9059 4696
43 5887 761
44 6650 2374
45 9830 1018
46 8347 6732
47 9865 9306
48 2588 8948
49 9290 9899
50 8382 5485
